(set-logic QF_LIA)
(declare-fun x0 () Int)
(declare-fun x1 () Int)
(declare-fun x2 () Int)
(declare-fun x3 () Int)
(declare-fun x4 () Int)
(declare-fun x5 () Int)
(declare-fun x6 () Int)
(declare-fun x7 () Int)
(declare-fun x8 () Int)
(declare-fun x9 () Int)
(declare-fun A0 () Bool)
(declare-fun A1 () Bool)
(declare-fun A2 () Bool)
(declare-fun A3 () Bool)
(declare-fun A4 () Bool)
(declare-fun A5 () Bool)
(declare-fun A6 () Bool)
(declare-fun A7 () Bool)
(declare-fun A8 () Bool)
(declare-fun A9 () Bool)
(assert (let ((.def_0 (* (- 1) x8))) (let ((.def_1 (< .def_0 1))) (let ((.def_2 (* 1 x4))) (let ((.def_3 (< .def_2 (- 1)))) (let ((.def_4 (not .def_3))) (let ((.def_5 (or .def_4 .def_1))) (let ((.def_6 (not .def_5))) (let ((.def_7 (* (- 1) x2))) (let ((.def_8 (+ .def_2 .def_7))) (let ((.def_9 (< .def_8 1))) (let ((.def_10 (or .def_9 A3))) (let ((.def_11 (not .def_10))) (let ((.def_12 (and .def_11 .def_6))) (let ((.def_13 (not .def_12))) (let ((.def_14 (= A9 A1))) (let ((.def_15 (not .def_14))) (let ((.def_16 (not A4))) (let ((.def_17 (= A5 .def_16))) (let ((.def_18 (and .def_17 .def_15))) (let ((.def_19 (not .def_18))) (let ((.def_20 (or .def_19 .def_13))) (let ((.def_21 (* 1 x7))) (let ((.def_22 (< .def_21 (- 1)))) (let ((.def_23 (or A2 .def_22))) (let ((.def_24 (not .def_23))) (let ((.def_25 (not A7))) (let ((.def_26 (* (- 1) x7))) (let ((.def_27 (+ .def_0 .def_26))) (let ((.def_28 (< .def_27 (- 1)))) (let ((.def_29 (or .def_28 .def_25))) (let ((.def_30 (not .def_29))) (let ((.def_31 (and .def_30 .def_24))) (let ((.def_32 (not .def_31))) (let ((.def_33 (* 1 x8))) (let ((.def_34 (< .def_33 1))) (let ((.def_35 (* (- 1) x5))) (let ((.def_36 (< .def_35 (- 1)))) (let ((.def_37 (or .def_36 .def_34))) (let ((.def_38 (not .def_37))) (let ((.def_39 (* 1 x3))) (let ((.def_40 (* (- 1) x4))) (let ((.def_41 (+ .def_40 .def_39))) (let ((.def_42 (< .def_41 1))) (let ((.def_43 (or .def_42 A2))) (let ((.def_44 (or .def_43 .def_38))) (let ((.def_45 (or .def_44 .def_32))) (let ((.def_46 (and .def_45 .def_20))) (let ((.def_47 (* (- 1) x9))) (let ((.def_48 (< .def_47 1))) (let ((.def_49 (not .def_48))) (let ((.def_50 (< .def_39 1))) (let ((.def_51 (and .def_50 .def_49))) (let ((.def_52 (not .def_51))) (let ((.def_53 (* 1 x2))) (let ((.def_54 (< .def_53 1))) (let ((.def_55 (* (- 1) x3))) (let ((.def_56 (* (- 1) x6))) (let ((.def_57 (+ .def_56 .def_55))) (let ((.def_58 (< .def_57 (- 1)))) (let ((.def_59 (and .def_58 .def_54))) (let ((.def_60 (not .def_59))) (let ((.def_61 (and .def_60 .def_52))) (let ((.def_62 (not .def_61))) (let ((.def_63 (< .def_57 1))) (let ((.def_64 (and .def_16 .def_63))) (let ((.def_65 (not .def_64))) (let ((.def_66 (* 1 x5))) (let ((.def_67 (+ .def_56 .def_66))) (let ((.def_68 (< .def_67 1))) (let ((.def_69 (not .def_68))) (let ((.def_70 (* (- 1) x0))) (let ((.def_71 (+ .def_56 .def_70))) (let ((.def_72 (< .def_71 (- 1)))) (let ((.def_73 (or .def_72 .def_69))) (let ((.def_74 (not .def_73))) (let ((.def_75 (and .def_74 .def_65))) (let ((.def_76 (or .def_75 .def_62))) (let ((.def_77 (not .def_76))) (let ((.def_78 (not A1))) (let ((.def_79 (not A3))) (let ((.def_80 (or .def_79 .def_78))) (let ((.def_81 (not A0))) (let ((.def_82 (or A4 .def_81))) (let ((.def_83 (or .def_82 .def_80))) (let ((.def_84 (not A5))) (let ((.def_85 (and .def_84 .def_78))) (let ((.def_86 (and A5 A0))) (let ((.def_87 (not .def_86))) (let ((.def_88 (and .def_87 .def_85))) (let ((.def_89 (not .def_88))) (let ((.def_90 (and .def_89 .def_83))) (let ((.def_91 (not .def_90))) (let ((.def_92 (and .def_91 .def_77))) (let ((.def_93 (not .def_92))) (let ((.def_94 (and .def_93 .def_46))) (let ((.def_95 (not .def_94))) (let ((.def_96 (< .def_66 1))) (let ((.def_97 (not .def_96))) (let ((.def_98 (+ .def_47 .def_66))) (let ((.def_99 (< .def_98 1))) (let ((.def_100 (and .def_99 .def_97))) (let ((.def_101 (not .def_100))) (let ((.def_102 (+ .def_2 .def_21))) (let ((.def_103 (< .def_102 1))) (let ((.def_104 (or .def_103 A9))) (let ((.def_105 (or .def_104 .def_101))) (let ((.def_106 (not A6))) (let ((.def_107 (or A6 .def_106))) (let ((.def_108 (not .def_107))) (let ((.def_109 (or A1 .def_106))) (let ((.def_110 (and .def_109 .def_108))) (let ((.def_111 (or .def_110 .def_105))) (let ((.def_112 (not .def_111))) (let ((.def_113 (< .def_35 1))) (let ((.def_114 (or .def_81 .def_113))) (let ((.def_115 (or A7 A9))) (let ((.def_116 (not .def_115))) (let ((.def_117 (and .def_116 .def_114))) (let ((.def_118 (* 1 x1))) (let ((.def_119 (< .def_118 (- 1)))) (let ((.def_120 (not .def_119))) (let ((.def_121 (< .def_56 1))) (let ((.def_122 (or .def_121 .def_120))) (let ((.def_123 (not .def_122))) (let ((.def_124 (* 1 x0))) (let ((.def_125 (+ .def_124 .def_40))) (let ((.def_126 (< .def_125 1))) (let ((.def_127 (+ .def_66 .def_56))) (let ((.def_128 (< .def_127 1))) (let ((.def_129 (not .def_128))) (let ((.def_130 (or .def_129 .def_126))) (let ((.def_131 (not .def_130))) (let ((.def_132 (and .def_131 .def_123))) (let ((.def_133 (not .def_132))) (let ((.def_134 (or .def_133 .def_117))) (let ((.def_135 (not .def_134))) (let ((.def_136 (= .def_135 .def_112))) (let ((.def_137 (not .def_136))) (let ((.def_138 (< .def_47 (- 1)))) (let ((.def_139 (not .def_138))) (let ((.def_140 (+ .def_7 .def_33))) (let ((.def_141 (< .def_140 (- 1)))) (let ((.def_142 (and .def_141 .def_139))) (let ((.def_143 (< .def_124 1))) (let ((.def_144 (not .def_143))) (let ((.def_145 (and .def_144 .def_84))) (let ((.def_146 (not .def_145))) (let ((.def_147 (or .def_146 .def_142))) (let ((.def_148 (not .def_147))) (let ((.def_149 (* 1 x6))) (let ((.def_150 (< .def_149 1))) (let ((.def_151 (not .def_150))) (let ((.def_152 (and .def_151 A1))) (let ((.def_153 (not .def_152))) (let ((.def_154 (and .def_78 .def_106))) (let ((.def_155 (not .def_154))) (let ((.def_156 (or .def_155 .def_153))) (let ((.def_157 (not .def_156))) (let ((.def_158 (and .def_157 .def_148))) (let ((.def_159 (not .def_158))) (let ((.def_160 (+ .def_7 .def_124))) (let ((.def_161 (< .def_160 1))) (let ((.def_162 (not .def_161))) (let ((.def_163 (not .def_121))) (let ((.def_164 (or .def_163 .def_162))) (let ((.def_165 (not A9))) (let ((.def_166 (+ .def_118 .def_149))) (let ((.def_167 (< .def_166 (- 1)))) (let ((.def_168 (not .def_167))) (let ((.def_169 (= .def_168 .def_165))) (let ((.def_170 (or .def_169 .def_164))) (let ((.def_171 (and A2 A9))) (let ((.def_172 (not .def_171))) (let ((.def_173 (< .def_0 (- 1)))) (let ((.def_174 (not A2))) (let ((.def_175 (and .def_174 .def_173))) (let ((.def_176 (not .def_175))) (let ((.def_177 (and .def_176 .def_172))) (let ((.def_178 (not .def_177))) (let ((.def_179 (and .def_178 .def_170))) (let ((.def_180 (not .def_179))) (let ((.def_181 (or .def_180 .def_159))) (let ((.def_182 (not .def_181))) (let ((.def_183 (= .def_182 .def_137))) (let ((.def_184 (not .def_183))) (let ((.def_185 (or .def_184 .def_95))) (let ((.def_186 (not .def_185))) (let ((.def_187 (* (- 1) x1))) (let ((.def_188 (< .def_187 (- 1)))) (let ((.def_189 (not A8))) (let ((.def_190 (and .def_189 .def_188))) (let ((.def_191 (and .def_96 .def_25))) (let ((.def_192 (or .def_191 .def_190))) (let ((.def_193 (+ .def_35 .def_26))) (let ((.def_194 (< .def_193 1))) (let ((.def_195 (not .def_194))) (let ((.def_196 (and .def_195 .def_16))) (let ((.def_197 (not .def_196))) (let ((.def_198 (< .def_66 (- 1)))) (let ((.def_199 (not .def_198))) (let ((.def_200 (or A1 .def_199))) (let ((.def_201 (and .def_200 .def_197))) (let ((.def_202 (not .def_201))) (let ((.def_203 (and .def_202 .def_192))) (let ((.def_204 (+ .def_149 .def_39))) (let ((.def_205 (< .def_204 (- 1)))) (let ((.def_206 (= .def_205 .def_3))) (let ((.def_207 (not .def_206))) (let ((.def_208 (+ .def_118 .def_66))) (let ((.def_209 (< .def_208 (- 1)))) (let ((.def_210 (not .def_209))) (let ((.def_211 (or .def_210 .def_165))) (let ((.def_212 (or .def_211 .def_207))) (let ((.def_213 (not .def_212))) (let ((.def_214 (* 1 x9))) (let ((.def_215 (< .def_214 1))) (let ((.def_216 (and .def_215 .def_25))) (let ((.def_217 (not .def_216))) (let ((.def_218 (+ .def_124 .def_39))) (let ((.def_219 (< .def_218 1))) (let ((.def_220 (< .def_40 (- 1)))) (let ((.def_221 (or .def_220 .def_219))) (let ((.def_222 (= .def_221 .def_217))) (let ((.def_223 (and .def_222 .def_213))) (let ((.def_224 (and .def_223 .def_203))) (let ((.def_225 (not .def_224))) (let ((.def_226 (or A3 .def_120))) (let ((.def_227 (and .def_16 .def_215))) (let ((.def_228 (not .def_227))) (let ((.def_229 (or .def_228 .def_226))) (let ((.def_230 (not .def_229))) (let ((.def_231 (+ .def_124 .def_2))) (let ((.def_232 (< .def_231 1))) (let ((.def_233 (not .def_232))) (let ((.def_234 (and A7 .def_233))) (let ((.def_235 (not .def_234))) (let ((.def_236 (or .def_81 .def_106))) (let ((.def_237 (not .def_236))) (let ((.def_238 (or .def_237 .def_235))) (let ((.def_239 (not .def_238))) (let ((.def_240 (= .def_239 .def_230))) (let ((.def_241 (and A2 A1))) (let ((.def_242 (+ .def_26 .def_33))) (let ((.def_243 (< .def_242 1))) (let ((.def_244 (not .def_243))) (let ((.def_245 (or .def_188 .def_244))) (let ((.def_246 (or .def_245 .def_241))) (let ((.def_247 (< .def_149 (- 1)))) (let ((.def_248 (or .def_247 .def_25))) (let ((.def_249 (not .def_248))) (let ((.def_250 (< .def_118 1))) (let ((.def_251 (= .def_81 .def_250))) (let ((.def_252 (not .def_251))) (let ((.def_253 (and .def_252 .def_249))) (let ((.def_254 (not .def_253))) (let ((.def_255 (and .def_254 .def_246))) (let ((.def_256 (and .def_255 .def_240))) (let ((.def_257 (and .def_256 .def_225))) (let ((.def_258 (not .def_257))) (let ((.def_259 (= .def_16 A7))) (let ((.def_260 (not .def_259))) (let ((.def_261 (+ .def_7 .def_214))) (let ((.def_262 (< .def_261 (- 1)))) (let ((.def_263 (not .def_262))) (let ((.def_264 (or .def_22 .def_263))) (let ((.def_265 (not .def_264))) (let ((.def_266 (and .def_265 .def_260))) (let ((.def_267 (not .def_266))) (let ((.def_268 (or A4 .def_189))) (let ((.def_269 (not .def_268))) (let ((.def_270 (or .def_79 .def_106))) (let ((.def_271 (and .def_270 .def_269))) (let ((.def_272 (not .def_271))) (let ((.def_273 (or .def_272 .def_267))) (let ((.def_274 (+ .def_35 .def_70))) (let ((.def_275 (< .def_274 1))) (let ((.def_276 (not .def_275))) (let ((.def_277 (or .def_84 .def_276))) (let ((.def_278 (not .def_277))) (let ((.def_279 (and .def_163 .def_25))) (let ((.def_280 (or .def_279 .def_278))) (let ((.def_281 (not .def_188))) (let ((.def_282 (+ .def_33 .def_118))) (let ((.def_283 (< .def_282 (- 1)))) (let ((.def_284 (and .def_283 .def_281))) (let ((.def_285 (not .def_284))) (let ((.def_286 (not .def_54))) (let ((.def_287 (and A9 .def_286))) (let ((.def_288 (or .def_287 .def_285))) (let ((.def_289 (and .def_288 .def_280))) (let ((.def_290 (and .def_289 .def_273))) (let ((.def_291 (< .def_124 (- 1)))) (let ((.def_292 (or .def_291 A1))) (let ((.def_293 (< .def_39 (- 1)))) (let ((.def_294 (not .def_293))) (let ((.def_295 (or .def_294 .def_81))) (let ((.def_296 (not .def_295))) (let ((.def_297 (and .def_296 .def_292))) (let ((.def_298 (+ .def_47 .def_33))) (let ((.def_299 (< .def_298 (- 1)))) (let ((.def_300 (not .def_299))) (let ((.def_301 (= .def_300 .def_165))) (let ((.def_302 (+ .def_55 .def_56))) (let ((.def_303 (< .def_302 1))) (let ((.def_304 (< .def_70 1))) (let ((.def_305 (and .def_304 .def_303))) (let ((.def_306 (or .def_305 .def_301))) (let ((.def_307 (not .def_306))) (let ((.def_308 (and .def_307 .def_297))) (let ((.def_309 (not .def_113))) (let ((.def_310 (or .def_165 .def_309))) (let ((.def_311 (or .def_165 A1))) (let ((.def_312 (not .def_311))) (let ((.def_313 (or .def_312 .def_310))) (let ((.def_314 (not .def_313))) (let ((.def_315 (or .def_173 A3))) (let ((.def_316 (not .def_315))) (let ((.def_317 (and A6 A1))) (let ((.def_318 (or .def_317 .def_316))) (let ((.def_319 (and .def_318 .def_314))) (let ((.def_320 (or .def_319 .def_308))) (let ((.def_321 (not .def_320))) (let ((.def_322 (and .def_321 .def_290))) (let ((.def_323 (and .def_322 .def_258))) (let ((.def_324 (not .def_323))) (let ((.def_325 (and .def_324 .def_186))) (let ((.def_326 (and A7 .def_286))) (let ((.def_327 (< .def_55 (- 1)))) (let ((.def_328 (not .def_327))) (let ((.def_329 (+ .def_39 .def_7))) (let ((.def_330 (< .def_329 1))) (let ((.def_331 (and .def_330 .def_328))) (let ((.def_332 (not .def_331))) (let ((.def_333 (or .def_332 .def_326))) (let ((.def_334 (< .def_214 (- 1)))) (let ((.def_335 (not .def_334))) (let ((.def_336 (and .def_25 .def_335))) (let ((.def_337 (not .def_336))) (let ((.def_338 (+ .def_124 .def_7))) (let ((.def_339 (< .def_338 (- 1)))) (let ((.def_340 (not .def_339))) (let ((.def_341 (or .def_340 A2))) (let ((.def_342 (or .def_341 .def_337))) (let ((.def_343 (not .def_342))) (let ((.def_344 (and .def_343 .def_333))) (let ((.def_345 (not .def_344))) (let ((.def_346 (and .def_174 .def_49))) (let ((.def_347 (not .def_346))) (let ((.def_348 (and .def_16 A2))) (let ((.def_349 (and .def_348 .def_347))) (let ((.def_350 (not .def_349))) (let ((.def_351 (< .def_53 (- 1)))) (let ((.def_352 (not .def_351))) (let ((.def_353 (and .def_352 A2))) (let ((.def_354 (not .def_353))) (let ((.def_355 (and A0 .def_293))) (let ((.def_356 (and .def_355 .def_354))) (let ((.def_357 (and .def_356 .def_350))) (let ((.def_358 (not .def_357))) (let ((.def_359 (and .def_358 .def_345))) (let ((.def_360 (+ .def_214 .def_35))) (let ((.def_361 (< .def_360 (- 1)))) (let ((.def_362 (and A0 .def_361))) (let ((.def_363 (< .def_70 (- 1)))) (let ((.def_364 (or .def_363 .def_165))) (let ((.def_365 (and .def_364 .def_362))) (let ((.def_366 (< .def_2 1))) (let ((.def_367 (not .def_366))) (let ((.def_368 (or A5 .def_367))) (let ((.def_369 (+ .def_70 .def_7))) (let ((.def_370 (< .def_369 (- 1)))) (let ((.def_371 (not .def_370))) (let ((.def_372 (or .def_283 .def_371))) (let ((.def_373 (not .def_372))) (let ((.def_374 (or .def_373 .def_368))) (let ((.def_375 (not .def_374))) (let ((.def_376 (and .def_375 .def_365))) (let ((.def_377 (+ .def_39 .def_21))) (let ((.def_378 (< .def_377 1))) (let ((.def_379 (not .def_378))) (let ((.def_380 (or .def_379 .def_81))) (let ((.def_381 (+ .def_214 .def_33))) (let ((.def_382 (< .def_381 (- 1)))) (let ((.def_383 (not .def_382))) (let ((.def_384 (and .def_106 .def_383))) (let ((.def_385 (or .def_384 .def_380))) (let ((.def_386 (not .def_385))) (let ((.def_387 (< .def_55 1))) (let ((.def_388 (or .def_3 .def_387))) (let ((.def_389 (not .def_388))) (let ((.def_390 (and .def_174 A3))) (let ((.def_391 (or .def_390 .def_389))) (let ((.def_392 (not .def_391))) (let ((.def_393 (or .def_392 .def_386))) (let ((.def_394 (or .def_393 .def_376))) (let ((.def_395 (not .def_394))) (let ((.def_396 (and .def_395 .def_359))) (let ((.def_397 (+ .def_21 .def_35))) (let ((.def_398 (< .def_397 1))) (let ((.def_399 (and .def_387 .def_398))) (let ((.def_400 (not .def_399))) (let ((.def_401 (+ .def_39 .def_2))) (let ((.def_402 (< .def_401 (- 1)))) (let ((.def_403 (or A1 .def_402))) (let ((.def_404 (not .def_403))) (let ((.def_405 (or .def_404 .def_400))) (let ((.def_406 (+ .def_33 .def_7))) (let ((.def_407 (< .def_406 1))) (let ((.def_408 (or .def_78 .def_407))) (let ((.def_409 (not .def_408))) (let ((.def_410 (not .def_34))) (let ((.def_411 (= A5 .def_410))) (let ((.def_412 (or .def_411 .def_409))) (let ((.def_413 (not .def_412))) (let ((.def_414 (or .def_413 .def_405))) (let ((.def_415 (not .def_414))) (let ((.def_416 (< .def_26 1))) (let ((.def_417 (and .def_174 .def_416))) (let ((.def_418 (< .def_21 1))) (let ((.def_419 (not .def_418))) (let ((.def_420 (and .def_419 A4))) (let ((.def_421 (not .def_420))) (let ((.def_422 (or .def_421 .def_417))) (let ((.def_423 (not .def_422))) (let ((.def_424 (and A7 A4))) (let ((.def_425 (or .def_25 .def_54))) (let ((.def_426 (not .def_425))) (let ((.def_427 (or .def_426 .def_424))) (let ((.def_428 (and .def_427 .def_423))) (let ((.def_429 (not .def_428))) (let ((.def_430 (and .def_429 .def_415))) (let ((.def_431 (and .def_335 A3))) (let ((.def_432 (or .def_85 .def_431))) (let ((.def_433 (not .def_432))) (let ((.def_434 (and .def_121 A2))) (let ((.def_435 (not .def_434))) (let ((.def_436 (< .def_102 (- 1)))) (let ((.def_437 (+ .def_66 .def_118))) (let ((.def_438 (< .def_437 (- 1)))) (let ((.def_439 (not .def_438))) (let ((.def_440 (= .def_439 .def_436))) (let ((.def_441 (and .def_440 .def_435))) (let ((.def_442 (and .def_441 .def_433))) (let ((.def_443 (+ .def_70 .def_26))) (let ((.def_444 (< .def_443 1))) (let ((.def_445 (or .def_444 .def_79))) (let ((.def_446 (+ .def_124 .def_0))) (let ((.def_447 (< .def_446 1))) (let ((.def_448 (not .def_447))) (let ((.def_449 (or A0 .def_448))) (let ((.def_450 (and .def_449 .def_445))) (let ((.def_451 (not .def_450))) (let ((.def_452 (or A8 A4))) (let ((.def_453 (not .def_452))) (let ((.def_454 (not .def_247))) (let ((.def_455 (or .def_454 A9))) (let ((.def_456 (and .def_455 .def_453))) (let ((.def_457 (not .def_456))) (let ((.def_458 (and .def_457 .def_451))) (let ((.def_459 (or .def_458 .def_442))) (let ((.def_460 (not .def_459))) (let ((.def_461 (or .def_460 .def_430))) (let ((.def_462 (not .def_461))) (let ((.def_463 (and .def_462 .def_396))) (let ((.def_464 (or .def_16 A8))) (let ((.def_465 (not .def_464))) (let ((.def_466 (< .def_7 (- 1)))) (let ((.def_467 (not .def_466))) (let ((.def_468 (and .def_119 .def_467))) (let ((.def_469 (not .def_468))) (let ((.def_470 (and .def_469 .def_465))) (let ((.def_471 (not .def_470))) (let ((.def_472 (< .def_187 1))) (let ((.def_473 (or .def_472 .def_84))) (let ((.def_474 (not .def_473))) (let ((.def_475 (or A6 .def_139))) (let ((.def_476 (and .def_475 .def_474))) (let ((.def_477 (= .def_476 .def_471))) (let ((.def_478 (not .def_50))) (let ((.def_479 (< .def_193 (- 1)))) (let ((.def_480 (or .def_479 .def_478))) (let ((.def_481 (or .def_198 .def_189))) (let ((.def_482 (and .def_481 .def_480))) (let ((.def_483 (not .def_482))) (let ((.def_484 (< .def_401 1))) (let ((.def_485 (+ .def_149 .def_47))) (let ((.def_486 (< .def_485 (- 1)))) (let ((.def_487 (not .def_486))) (let ((.def_488 (or .def_487 .def_484))) (let ((.def_489 (or .def_304 .def_304))) (let ((.def_490 (or .def_489 .def_488))) (let ((.def_491 (and .def_490 .def_483))) (let ((.def_492 (or .def_491 .def_477))) (let ((.def_493 (not .def_492))) (let ((.def_494 (or A8 .def_304))) (let ((.def_495 (+ .def_47 .def_149))) (let ((.def_496 (< .def_495 (- 1)))) (let ((.def_497 (or .def_496 .def_165))) (let ((.def_498 (or .def_497 .def_494))) (let ((.def_499 (not .def_498))) (let ((.def_500 (+ .def_21 .def_187))) (let ((.def_501 (< .def_500 1))) (let ((.def_502 (not .def_501))) (let ((.def_503 (or A6 .def_502))) (let ((.def_504 (+ .def_55 .def_47))) (let ((.def_505 (< .def_504 (- 1)))) (let ((.def_506 (and .def_25 .def_505))) (let ((.def_507 (not .def_506))) (let ((.def_508 (= .def_507 .def_503))) (let ((.def_509 (and .def_508 .def_499))) (let ((.def_510 (< .def_7 1))) (let ((.def_511 (not .def_510))) (let ((.def_512 (and .def_511 A7))) (let ((.def_513 (not .def_512))) (let ((.def_514 (and A5 A7))) (let ((.def_515 (or .def_514 .def_513))) (let ((.def_516 (not .def_515))) (let ((.def_517 (+ .def_33 .def_21))) (let ((.def_518 (< .def_517 (- 1)))) (let ((.def_519 (not .def_518))) (let ((.def_520 (or .def_519 .def_25))) (let ((.def_521 (< .def_67 (- 1)))) (let ((.def_522 (not .def_521))) (let ((.def_523 (or .def_84 .def_522))) (let ((.def_524 (= .def_523 .def_520))) (let ((.def_525 (and .def_524 .def_516))) (let ((.def_526 (or .def_525 .def_509))) (let ((.def_527 (and .def_526 .def_493))) (let ((.def_528 (= .def_472 A9))) (let ((.def_529 (not .def_528))) (let ((.def_530 (+ .def_40 .def_187))) (let ((.def_531 (< .def_530 (- 1)))) (let ((.def_532 (or .def_511 .def_531))) (let ((.def_533 (or .def_532 .def_529))) (let ((.def_534 (or .def_174 A7))) (let ((.def_535 (not .def_36))) (let ((.def_536 (= .def_25 .def_535))) (let ((.def_537 (not .def_536))) (let ((.def_538 (or .def_537 .def_534))) (let ((.def_539 (and .def_538 .def_533))) (let ((.def_540 (not .def_539))) (let ((.def_541 (not .def_1))) (let ((.def_542 (and .def_541 .def_79))) (let ((.def_543 (not .def_542))) (let ((.def_544 (+ .def_47 .def_21))) (let ((.def_545 (< .def_544 (- 1)))) (let ((.def_546 (and A7 .def_545))) (let ((.def_547 (not .def_546))) (let ((.def_548 (and .def_547 .def_543))) (let ((.def_549 (+ .def_66 .def_47))) (let ((.def_550 (< .def_549 (- 1)))) (let ((.def_551 (not .def_550))) (let ((.def_552 (or A9 .def_551))) (let ((.def_553 (not .def_552))) (let ((.def_554 (+ .def_53 .def_56))) (let ((.def_555 (< .def_554 1))) (let ((.def_556 (and A2 .def_555))) (let ((.def_557 (not .def_556))) (let ((.def_558 (and .def_557 .def_553))) (let ((.def_559 (not .def_558))) (let ((.def_560 (or .def_559 .def_548))) (let ((.def_561 (not .def_560))) (let ((.def_562 (or .def_561 .def_540))) (let ((.def_563 (not .def_562))) (let ((.def_564 (+ .def_214 .def_149))) (let ((.def_565 (< .def_564 (- 1)))) (let ((.def_566 (not .def_565))) (let ((.def_567 (or .def_566 .def_79))) (let ((.def_568 (not .def_567))) (let ((.def_569 (or .def_78 .def_79))) (let ((.def_570 (and .def_569 .def_568))) (let ((.def_571 (and .def_174 .def_16))) (let ((.def_572 (not .def_571))) (let ((.def_573 (or .def_335 A5))) (let ((.def_574 (and .def_573 .def_572))) (let ((.def_575 (and .def_574 .def_570))) (let ((.def_576 (or A1 .def_81))) (let ((.def_577 (+ .def_149 .def_55))) (let ((.def_578 (< .def_577 (- 1)))) (let ((.def_579 (not .def_578))) (let ((.def_580 (and .def_579 .def_351))) (let ((.def_581 (or .def_580 .def_576))) (let ((.def_582 (not .def_581))) (let ((.def_583 (+ .def_21 .def_53))) (let ((.def_584 (< .def_583 1))) (let ((.def_585 (and .def_584 .def_84))) (let ((.def_586 (< .def_397 (- 1)))) (let ((.def_587 (not .def_586))) (let ((.def_588 (and .def_587 .def_165))) (let ((.def_589 (not .def_588))) (let ((.def_590 (or .def_589 .def_585))) (let ((.def_591 (not .def_590))) (let ((.def_592 (and .def_591 .def_582))) (let ((.def_593 (and .def_592 .def_575))) (let ((.def_594 (= .def_593 .def_563))) (let ((.def_595 (or .def_594 .def_527))) (let ((.def_596 (not .def_595))) (let ((.def_597 (= .def_596 .def_463))) (let ((.def_598 (not .def_597))) (let ((.def_599 (and .def_598 .def_325))) (let ((.def_600 (not .def_599))) (let ((.def_601 (<= x9 1))) (let ((.def_602 (<= 0 x9))) (let ((.def_603 (<= x8 1))) (let ((.def_604 (<= 0 x8))) (let ((.def_605 (<= x7 1))) (let ((.def_606 (<= 0 x7))) (let ((.def_607 (<= x6 1))) (let ((.def_608 (<= 0 x6))) (let ((.def_609 (<= x5 1))) (let ((.def_610 (<= 0 x5))) (let ((.def_611 (<= x4 1))) (let ((.def_612 (<= 0 x4))) (let ((.def_613 (<= x3 1))) (let ((.def_614 (<= 0 x3))) (let ((.def_615 (<= x2 1))) (let ((.def_616 (<= 0 x2))) (let ((.def_617 (<= x1 1))) (let ((.def_618 (<= 0 x1))) (let ((.def_619 (<= x0 1))) (let ((.def_620 (<= 0 x0))) (let ((.def_621 (and .def_620 .def_619 .def_618 .def_617 .def_616 .def_615 .def_614 .def_613 .def_612 .def_611 .def_610 .def_609 .def_608 .def_607 .def_606 .def_605 .def_604 .def_603 .def_602 .def_601 .def_600))) .def_621)))))))))))))))))))))))))))))))))))))))))))))))))))))))))))))))))))))))))))))))))))))))))))))))))))))))))))))))))))))))))))))))))))))))))))))))))))))))))))))))))))))))))))))))))))))))))))))))))))))))))))))))))))))))))))))))))))))))))))))))))))))))))))))))))))))))))))))))))))))))))))))))))))))))))))))))))))))))))))))))))))))))))))))))))))))))))))))))))))))))))))))))))))))))))))))))))))))))))))))))))))))))))))))))))))))))))))))))))))))))))))))))))))))))))))))))))))))))))))))))))))))))))))))))))))))))))))))))))))))))))))))))))))))))))))))))))))))))))))))))))))))))))))))))))))))))))))))))))))))))))))))))))))))))))))))))
(check-sat)
